58419
20,217,283,289,487,504,617,708,747,962,969,1049,1204,1250,1292,1352,1419,1510,1513,1683,1687,1816,1883,2200,2499,2606,2629,2631,2687,2711,2931,3038,3066,3106,3146,3529,3677,3711,3801,3991,4053,4121,4218,4359,4446,4617,4702,4895,4916,5283,5351,5403,5707,5717,5980,6021,6172,6246,6291,6432,6698,6818,6905,6948,6971,6983,6988,7049,7295,7408,7424,7442,7468,7551,7764,7948,7995,8031,8120,8208,8261,8529,8714,8734,8940,9196,9318,9735,9900
